p cnf 108 1416
1 2 3 7 8 9 13 14 15 0
1 2 4 7 8 10 13 14 16 0
1 2 5 7 8 11 13 14 17 0
1 2 6 7 8 12 13 14 18 0
1 3 4 7 9 10 13 15 16 0
1 3 5 7 9 11 13 15 17 0
1 3 6 7 9 12 13 15 18 0
1 4 5 7 10 11 13 16 17 0
1 4 6 7 10 12 13 16 18 0
1 5 6 7 11 12 13 17 18 0
2 3 4 8 9 10 14 15 16 0
2 3 5 8 9 11 14 15 17 0
2 3 6 8 9 12 14 15 18 0
2 4 5 8 10 11 14 16 17 0
2 4 6 8 10 12 14 16 18 0
2 5 6 8 11 12 14 17 18 0
3 4 5 9 10 11 15 16 17 0
3 4 6 9 10 12 15 16 18 0
3 5 6 9 11 12 15 17 18 0
4 5 6 10 11 12 16 17 18 0
1 2 3 7 8 9 19 20 21 0
1 2 4 7 8 10 19 20 22 0
1 2 5 7 8 11 19 20 23 0
1 2 6 7 8 12 19 20 24 0
1 3 4 7 9 10 19 21 22 0
1 3 5 7 9 11 19 21 23 0
1 3 6 7 9 12 19 21 24 0
1 4 5 7 10 11 19 22 23 0
1 4 6 7 10 12 19 22 24 0
1 5 6 7 11 12 19 23 24 0
2 3 4 8 9 10 20 21 22 0
2 3 5 8 9 11 20 21 23 0
2 3 6 8 9 12 20 21 24 0
2 4 5 8 10 11 20 22 23 0
2 4 6 8 10 12 20 22 24 0
2 5 6 8 11 12 20 23 24 0
3 4 5 9 10 11 21 22 23 0
3 4 6 9 10 12 21 22 24 0
3 5 6 9 11 12 21 23 24 0
4 5 6 10 11 12 22 23 24 0
1 2 3 7 8 9 25 26 27 0
1 2 4 7 8 10 25 26 28 0
1 2 5 7 8 11 25 26 29 0
1 2 6 7 8 12 25 26 30 0
1 3 4 7 9 10 25 27 28 0
1 3 5 7 9 11 25 27 29 0
1 3 6 7 9 12 25 27 30 0
1 4 5 7 10 11 25 28 29 0
1 4 6 7 10 12 25 28 30 0
1 5 6 7 11 12 25 29 30 0
2 3 4 8 9 10 26 27 28 0
2 3 5 8 9 11 26 27 29 0
2 3 6 8 9 12 26 27 30 0
2 4 5 8 10 11 26 28 29 0
2 4 6 8 10 12 26 28 30 0
2 5 6 8 11 12 26 29 30 0
3 4 5 9 10 11 27 28 29 0
3 4 6 9 10 12 27 28 30 0
3 5 6 9 11 12 27 29 30 0
4 5 6 10 11 12 28 29 30 0
1 2 3 7 8 9 31 32 33 0
1 2 4 7 8 10 31 32 34 0
1 2 5 7 8 11 31 32 35 0
1 2 6 7 8 12 31 32 36 0
1 3 4 7 9 10 31 33 34 0
1 3 5 7 9 11 31 33 35 0
1 3 6 7 9 12 31 33 36 0
1 4 5 7 10 11 31 34 35 0
1 4 6 7 10 12 31 34 36 0
1 5 6 7 11 12 31 35 36 0
2 3 4 8 9 10 32 33 34 0
2 3 5 8 9 11 32 33 35 0
2 3 6 8 9 12 32 33 36 0
2 4 5 8 10 11 32 34 35 0
2 4 6 8 10 12 32 34 36 0
2 5 6 8 11 12 32 35 36 0
3 4 5 9 10 11 33 34 35 0
3 4 6 9 10 12 33 34 36 0
3 5 6 9 11 12 33 35 36 0
4 5 6 10 11 12 34 35 36 0
1 2 3 13 14 15 19 20 21 0
1 2 4 13 14 16 19 20 22 0
1 2 5 13 14 17 19 20 23 0
1 2 6 13 14 18 19 20 24 0
1 3 4 13 15 16 19 21 22 0
1 3 5 13 15 17 19 21 23 0
1 3 6 13 15 18 19 21 24 0
1 4 5 13 16 17 19 22 23 0
1 4 6 13 16 18 19 22 24 0
1 5 6 13 17 18 19 23 24 0
2 3 4 14 15 16 20 21 22 0
2 3 5 14 15 17 20 21 23 0
2 3 6 14 15 18 20 21 24 0
2 4 5 14 16 17 20 22 23 0
2 4 6 14 16 18 20 22 24 0
2 5 6 14 17 18 20 23 24 0
3 4 5 15 16 17 21 22 23 0
3 4 6 15 16 18 21 22 24 0
3 5 6 15 17 18 21 23 24 0
4 5 6 16 17 18 22 23 24 0
1 2 3 13 14 15 25 26 27 0
1 2 4 13 14 16 25 26 28 0
1 2 5 13 14 17 25 26 29 0
1 2 6 13 14 18 25 26 30 0
1 3 4 13 15 16 25 27 28 0
1 3 5 13 15 17 25 27 29 0
1 3 6 13 15 18 25 27 30 0
1 4 5 13 16 17 25 28 29 0
1 4 6 13 16 18 25 28 30 0
1 5 6 13 17 18 25 29 30 0
2 3 4 14 15 16 26 27 28 0
2 3 5 14 15 17 26 27 29 0
2 3 6 14 15 18 26 27 30 0
2 4 5 14 16 17 26 28 29 0
2 4 6 14 16 18 26 28 30 0
2 5 6 14 17 18 26 29 30 0
3 4 5 15 16 17 27 28 29 0
3 4 6 15 16 18 27 28 30 0
3 5 6 15 17 18 27 29 30 0
4 5 6 16 17 18 28 29 30 0
1 2 3 13 14 15 31 32 33 0
1 2 4 13 14 16 31 32 34 0
1 2 5 13 14 17 31 32 35 0
1 2 6 13 14 18 31 32 36 0
1 3 4 13 15 16 31 33 34 0
1 3 5 13 15 17 31 33 35 0
1 3 6 13 15 18 31 33 36 0
1 4 5 13 16 17 31 34 35 0
1 4 6 13 16 18 31 34 36 0
1 5 6 13 17 18 31 35 36 0
2 3 4 14 15 16 32 33 34 0
2 3 5 14 15 17 32 33 35 0
2 3 6 14 15 18 32 33 36 0
2 4 5 14 16 17 32 34 35 0
2 4 6 14 16 18 32 34 36 0
2 5 6 14 17 18 32 35 36 0
3 4 5 15 16 17 33 34 35 0
3 4 6 15 16 18 33 34 36 0
3 5 6 15 17 18 33 35 36 0
4 5 6 16 17 18 34 35 36 0
1 2 3 19 20 21 25 26 27 0
1 2 4 19 20 22 25 26 28 0
1 2 5 19 20 23 25 26 29 0
1 2 6 19 20 24 25 26 30 0
1 3 4 19 21 22 25 27 28 0
1 3 5 19 21 23 25 27 29 0
1 3 6 19 21 24 25 27 30 0
1 4 5 19 22 23 25 28 29 0
1 4 6 19 22 24 25 28 30 0
1 5 6 19 23 24 25 29 30 0
2 3 4 20 21 22 26 27 28 0
2 3 5 20 21 23 26 27 29 0
2 3 6 20 21 24 26 27 30 0
2 4 5 20 22 23 26 28 29 0
2 4 6 20 22 24 26 28 30 0
2 5 6 20 23 24 26 29 30 0
3 4 5 21 22 23 27 28 29 0
3 4 6 21 22 24 27 28 30 0
3 5 6 21 23 24 27 29 30 0
4 5 6 22 23 24 28 29 30 0
1 2 3 19 20 21 31 32 33 0
1 2 4 19 20 22 31 32 34 0
1 2 5 19 20 23 31 32 35 0
1 2 6 19 20 24 31 32 36 0
1 3 4 19 21 22 31 33 34 0
1 3 5 19 21 23 31 33 35 0
1 3 6 19 21 24 31 33 36 0
1 4 5 19 22 23 31 34 35 0
1 4 6 19 22 24 31 34 36 0
1 5 6 19 23 24 31 35 36 0
2 3 4 20 21 22 32 33 34 0
2 3 5 20 21 23 32 33 35 0
2 3 6 20 21 24 32 33 36 0
2 4 5 20 22 23 32 34 35 0
2 4 6 20 22 24 32 34 36 0
2 5 6 20 23 24 32 35 36 0
3 4 5 21 22 23 33 34 35 0
3 4 6 21 22 24 33 34 36 0
3 5 6 21 23 24 33 35 36 0
4 5 6 22 23 24 34 35 36 0
1 2 3 25 26 27 31 32 33 0
1 2 4 25 26 28 31 32 34 0
1 2 5 25 26 29 31 32 35 0
1 2 6 25 26 30 31 32 36 0
1 3 4 25 27 28 31 33 34 0
1 3 5 25 27 29 31 33 35 0
1 3 6 25 27 30 31 33 36 0
1 4 5 25 28 29 31 34 35 0
1 4 6 25 28 30 31 34 36 0
1 5 6 25 29 30 31 35 36 0
2 3 4 26 27 28 32 33 34 0
2 3 5 26 27 29 32 33 35 0
2 3 6 26 27 30 32 33 36 0
2 4 5 26 28 29 32 34 35 0
2 4 6 26 28 30 32 34 36 0
2 5 6 26 29 30 32 35 36 0
3 4 5 27 28 29 33 34 35 0
3 4 6 27 28 30 33 34 36 0
3 5 6 27 29 30 33 35 36 0
4 5 6 28 29 30 34 35 36 0
7 8 9 13 14 15 19 20 21 0
7 8 10 13 14 16 19 20 22 0
7 8 11 13 14 17 19 20 23 0
7 8 12 13 14 18 19 20 24 0
7 9 10 13 15 16 19 21 22 0
7 9 11 13 15 17 19 21 23 0
7 9 12 13 15 18 19 21 24 0
7 10 11 13 16 17 19 22 23 0
7 10 12 13 16 18 19 22 24 0
7 11 12 13 17 18 19 23 24 0
8 9 10 14 15 16 20 21 22 0
8 9 11 14 15 17 20 21 23 0
8 9 12 14 15 18 20 21 24 0
8 10 11 14 16 17 20 22 23 0
8 10 12 14 16 18 20 22 24 0
8 11 12 14 17 18 20 23 24 0
9 10 11 15 16 17 21 22 23 0
9 10 12 15 16 18 21 22 24 0
9 11 12 15 17 18 21 23 24 0
10 11 12 16 17 18 22 23 24 0
7 8 9 13 14 15 25 26 27 0
7 8 10 13 14 16 25 26 28 0
7 8 11 13 14 17 25 26 29 0
7 8 12 13 14 18 25 26 30 0
7 9 10 13 15 16 25 27 28 0
7 9 11 13 15 17 25 27 29 0
7 9 12 13 15 18 25 27 30 0
7 10 11 13 16 17 25 28 29 0
7 10 12 13 16 18 25 28 30 0
7 11 12 13 17 18 25 29 30 0
8 9 10 14 15 16 26 27 28 0
8 9 11 14 15 17 26 27 29 0
8 9 12 14 15 18 26 27 30 0
8 10 11 14 16 17 26 28 29 0
8 10 12 14 16 18 26 28 30 0
8 11 12 14 17 18 26 29 30 0
9 10 11 15 16 17 27 28 29 0
9 10 12 15 16 18 27 28 30 0
9 11 12 15 17 18 27 29 30 0
10 11 12 16 17 18 28 29 30 0
7 8 9 13 14 15 31 32 33 0
7 8 10 13 14 16 31 32 34 0
7 8 11 13 14 17 31 32 35 0
7 8 12 13 14 18 31 32 36 0
7 9 10 13 15 16 31 33 34 0
7 9 11 13 15 17 31 33 35 0
7 9 12 13 15 18 31 33 36 0
7 10 11 13 16 17 31 34 35 0
7 10 12 13 16 18 31 34 36 0
7 11 12 13 17 18 31 35 36 0
8 9 10 14 15 16 32 33 34 0
8 9 11 14 15 17 32 33 35 0
8 9 12 14 15 18 32 33 36 0
8 10 11 14 16 17 32 34 35 0
8 10 12 14 16 18 32 34 36 0
8 11 12 14 17 18 32 35 36 0
9 10 11 15 16 17 33 34 35 0
9 10 12 15 16 18 33 34 36 0
9 11 12 15 17 18 33 35 36 0
10 11 12 16 17 18 34 35 36 0
7 8 9 19 20 21 25 26 27 0
7 8 10 19 20 22 25 26 28 0
7 8 11 19 20 23 25 26 29 0
7 8 12 19 20 24 25 26 30 0
7 9 10 19 21 22 25 27 28 0
7 9 11 19 21 23 25 27 29 0
7 9 12 19 21 24 25 27 30 0
7 10 11 19 22 23 25 28 29 0
7 10 12 19 22 24 25 28 30 0
7 11 12 19 23 24 25 29 30 0
8 9 10 20 21 22 26 27 28 0
8 9 11 20 21 23 26 27 29 0
8 9 12 20 21 24 26 27 30 0
8 10 11 20 22 23 26 28 29 0
8 10 12 20 22 24 26 28 30 0
8 11 12 20 23 24 26 29 30 0
9 10 11 21 22 23 27 28 29 0
9 10 12 21 22 24 27 28 30 0
9 11 12 21 23 24 27 29 30 0
10 11 12 22 23 24 28 29 30 0
7 8 9 19 20 21 31 32 33 0
7 8 10 19 20 22 31 32 34 0
7 8 11 19 20 23 31 32 35 0
7 8 12 19 20 24 31 32 36 0
7 9 10 19 21 22 31 33 34 0
7 9 11 19 21 23 31 33 35 0
7 9 12 19 21 24 31 33 36 0
7 10 11 19 22 23 31 34 35 0
7 10 12 19 22 24 31 34 36 0
7 11 12 19 23 24 31 35 36 0
8 9 10 20 21 22 32 33 34 0
8 9 11 20 21 23 32 33 35 0
8 9 12 20 21 24 32 33 36 0
8 10 11 20 22 23 32 34 35 0
8 10 12 20 22 24 32 34 36 0
8 11 12 20 23 24 32 35 36 0
9 10 11 21 22 23 33 34 35 0
9 10 12 21 22 24 33 34 36 0
9 11 12 21 23 24 33 35 36 0
10 11 12 22 23 24 34 35 36 0
7 8 9 25 26 27 31 32 33 0
7 8 10 25 26 28 31 32 34 0
7 8 11 25 26 29 31 32 35 0
7 8 12 25 26 30 31 32 36 0
7 9 10 25 27 28 31 33 34 0
7 9 11 25 27 29 31 33 35 0
7 9 12 25 27 30 31 33 36 0
7 10 11 25 28 29 31 34 35 0
7 10 12 25 28 30 31 34 36 0
7 11 12 25 29 30 31 35 36 0
8 9 10 26 27 28 32 33 34 0
8 9 11 26 27 29 32 33 35 0
8 9 12 26 27 30 32 33 36 0
8 10 11 26 28 29 32 34 35 0
8 10 12 26 28 30 32 34 36 0
8 11 12 26 29 30 32 35 36 0
9 10 11 27 28 29 33 34 35 0
9 10 12 27 28 30 33 34 36 0
9 11 12 27 29 30 33 35 36 0
10 11 12 28 29 30 34 35 36 0
13 14 15 19 20 21 25 26 27 0
13 14 16 19 20 22 25 26 28 0
13 14 17 19 20 23 25 26 29 0
13 14 18 19 20 24 25 26 30 0
13 15 16 19 21 22 25 27 28 0
13 15 17 19 21 23 25 27 29 0
13 15 18 19 21 24 25 27 30 0
13 16 17 19 22 23 25 28 29 0
13 16 18 19 22 24 25 28 30 0
13 17 18 19 23 24 25 29 30 0
14 15 16 20 21 22 26 27 28 0
14 15 17 20 21 23 26 27 29 0
14 15 18 20 21 24 26 27 30 0
14 16 17 20 22 23 26 28 29 0
14 16 18 20 22 24 26 28 30 0
14 17 18 20 23 24 26 29 30 0
15 16 17 21 22 23 27 28 29 0
15 16 18 21 22 24 27 28 30 0
15 17 18 21 23 24 27 29 30 0
16 17 18 22 23 24 28 29 30 0
13 14 15 19 20 21 31 32 33 0
13 14 16 19 20 22 31 32 34 0
13 14 17 19 20 23 31 32 35 0
13 14 18 19 20 24 31 32 36 0
13 15 16 19 21 22 31 33 34 0
13 15 17 19 21 23 31 33 35 0
13 15 18 19 21 24 31 33 36 0
13 16 17 19 22 23 31 34 35 0
13 16 18 19 22 24 31 34 36 0
13 17 18 19 23 24 31 35 36 0
14 15 16 20 21 22 32 33 34 0
14 15 17 20 21 23 32 33 35 0
14 15 18 20 21 24 32 33 36 0
14 16 17 20 22 23 32 34 35 0
14 16 18 20 22 24 32 34 36 0
14 17 18 20 23 24 32 35 36 0
15 16 17 21 22 23 33 34 35 0
15 16 18 21 22 24 33 34 36 0
15 17 18 21 23 24 33 35 36 0
16 17 18 22 23 24 34 35 36 0
13 14 15 25 26 27 31 32 33 0
13 14 16 25 26 28 31 32 34 0
13 14 17 25 26 29 31 32 35 0
13 14 18 25 26 30 31 32 36 0
13 15 16 25 27 28 31 33 34 0
13 15 17 25 27 29 31 33 35 0
13 15 18 25 27 30 31 33 36 0
13 16 17 25 28 29 31 34 35 0
13 16 18 25 28 30 31 34 36 0
13 17 18 25 29 30 31 35 36 0
14 15 16 26 27 28 32 33 34 0
14 15 17 26 27 29 32 33 35 0
14 15 18 26 27 30 32 33 36 0
14 16 17 26 28 29 32 34 35 0
14 16 18 26 28 30 32 34 36 0
14 17 18 26 29 30 32 35 36 0
15 16 17 27 28 29 33 34 35 0
15 16 18 27 28 30 33 34 36 0
15 17 18 27 29 30 33 35 36 0
16 17 18 28 29 30 34 35 36 0
19 20 21 25 26 27 31 32 33 0
19 20 22 25 26 28 31 32 34 0
19 20 23 25 26 29 31 32 35 0
19 20 24 25 26 30 31 32 36 0
19 21 22 25 27 28 31 33 34 0
19 21 23 25 27 29 31 33 35 0
19 21 24 25 27 30 31 33 36 0
19 22 23 25 28 29 31 34 35 0
19 22 24 25 28 30 31 34 36 0
19 23 24 25 29 30 31 35 36 0
20 21 22 26 27 28 32 33 34 0
20 21 23 26 27 29 32 33 35 0
20 21 24 26 27 30 32 33 36 0
20 22 23 26 28 29 32 34 35 0
20 22 24 26 28 30 32 34 36 0
20 23 24 26 29 30 32 35 36 0
21 22 23 27 28 29 33 34 35 0
21 22 24 27 28 30 33 34 36 0
21 23 24 27 29 30 33 35 36 0
22 23 24 28 29 30 34 35 36 0
37 38 39 43 44 45 49 50 51 0
37 38 40 43 44 46 49 50 52 0
37 38 41 43 44 47 49 50 53 0
37 38 42 43 44 48 49 50 54 0
37 39 40 43 45 46 49 51 52 0
37 39 41 43 45 47 49 51 53 0
37 39 42 43 45 48 49 51 54 0
37 40 41 43 46 47 49 52 53 0
37 40 42 43 46 48 49 52 54 0
37 41 42 43 47 48 49 53 54 0
38 39 40 44 45 46 50 51 52 0
38 39 41 44 45 47 50 51 53 0
38 39 42 44 45 48 50 51 54 0
38 40 41 44 46 47 50 52 53 0
38 40 42 44 46 48 50 52 54 0
38 41 42 44 47 48 50 53 54 0
39 40 41 45 46 47 51 52 53 0
39 40 42 45 46 48 51 52 54 0
39 41 42 45 47 48 51 53 54 0
40 41 42 46 47 48 52 53 54 0
37 38 39 43 44 45 55 56 57 0
37 38 40 43 44 46 55 56 58 0
37 38 41 43 44 47 55 56 59 0
37 38 42 43 44 48 55 56 60 0
37 39 40 43 45 46 55 57 58 0
37 39 41 43 45 47 55 57 59 0
37 39 42 43 45 48 55 57 60 0
37 40 41 43 46 47 55 58 59 0
37 40 42 43 46 48 55 58 60 0
37 41 42 43 47 48 55 59 60 0
38 39 40 44 45 46 56 57 58 0
38 39 41 44 45 47 56 57 59 0
38 39 42 44 45 48 56 57 60 0
38 40 41 44 46 47 56 58 59 0
38 40 42 44 46 48 56 58 60 0
38 41 42 44 47 48 56 59 60 0
39 40 41 45 46 47 57 58 59 0
39 40 42 45 46 48 57 58 60 0
39 41 42 45 47 48 57 59 60 0
40 41 42 46 47 48 58 59 60 0
37 38 39 43 44 45 61 62 63 0
37 38 40 43 44 46 61 62 64 0
37 38 41 43 44 47 61 62 65 0
37 38 42 43 44 48 61 62 66 0
37 39 40 43 45 46 61 63 64 0
37 39 41 43 45 47 61 63 65 0
37 39 42 43 45 48 61 63 66 0
37 40 41 43 46 47 61 64 65 0
37 40 42 43 46 48 61 64 66 0
37 41 42 43 47 48 61 65 66 0
38 39 40 44 45 46 62 63 64 0
38 39 41 44 45 47 62 63 65 0
38 39 42 44 45 48 62 63 66 0
38 40 41 44 46 47 62 64 65 0
38 40 42 44 46 48 62 64 66 0
38 41 42 44 47 48 62 65 66 0
39 40 41 45 46 47 63 64 65 0
39 40 42 45 46 48 63 64 66 0
39 41 42 45 47 48 63 65 66 0
40 41 42 46 47 48 64 65 66 0
37 38 39 43 44 45 67 68 69 0
37 38 40 43 44 46 67 68 70 0
37 38 41 43 44 47 67 68 71 0
37 38 42 43 44 48 67 68 72 0
37 39 40 43 45 46 67 69 70 0
37 39 41 43 45 47 67 69 71 0
37 39 42 43 45 48 67 69 72 0
37 40 41 43 46 47 67 70 71 0
37 40 42 43 46 48 67 70 72 0
37 41 42 43 47 48 67 71 72 0
38 39 40 44 45 46 68 69 70 0
38 39 41 44 45 47 68 69 71 0
38 39 42 44 45 48 68 69 72 0
38 40 41 44 46 47 68 70 71 0
38 40 42 44 46 48 68 70 72 0
38 41 42 44 47 48 68 71 72 0
39 40 41 45 46 47 69 70 71 0
39 40 42 45 46 48 69 70 72 0
39 41 42 45 47 48 69 71 72 0
40 41 42 46 47 48 70 71 72 0
37 38 39 49 50 51 55 56 57 0
37 38 40 49 50 52 55 56 58 0
37 38 41 49 50 53 55 56 59 0
37 38 42 49 50 54 55 56 60 0
37 39 40 49 51 52 55 57 58 0
37 39 41 49 51 53 55 57 59 0
37 39 42 49 51 54 55 57 60 0
37 40 41 49 52 53 55 58 59 0
37 40 42 49 52 54 55 58 60 0
37 41 42 49 53 54 55 59 60 0
38 39 40 50 51 52 56 57 58 0
38 39 41 50 51 53 56 57 59 0
38 39 42 50 51 54 56 57 60 0
38 40 41 50 52 53 56 58 59 0
38 40 42 50 52 54 56 58 60 0
38 41 42 50 53 54 56 59 60 0
39 40 41 51 52 53 57 58 59 0
39 40 42 51 52 54 57 58 60 0
39 41 42 51 53 54 57 59 60 0
40 41 42 52 53 54 58 59 60 0
37 38 39 49 50 51 61 62 63 0
37 38 40 49 50 52 61 62 64 0
37 38 41 49 50 53 61 62 65 0
37 38 42 49 50 54 61 62 66 0
37 39 40 49 51 52 61 63 64 0
37 39 41 49 51 53 61 63 65 0
37 39 42 49 51 54 61 63 66 0
37 40 41 49 52 53 61 64 65 0
37 40 42 49 52 54 61 64 66 0
37 41 42 49 53 54 61 65 66 0
38 39 40 50 51 52 62 63 64 0
38 39 41 50 51 53 62 63 65 0
38 39 42 50 51 54 62 63 66 0
38 40 41 50 52 53 62 64 65 0
38 40 42 50 52 54 62 64 66 0
38 41 42 50 53 54 62 65 66 0
39 40 41 51 52 53 63 64 65 0
39 40 42 51 52 54 63 64 66 0
39 41 42 51 53 54 63 65 66 0
40 41 42 52 53 54 64 65 66 0
37 38 39 49 50 51 67 68 69 0
37 38 40 49 50 52 67 68 70 0
37 38 41 49 50 53 67 68 71 0
37 38 42 49 50 54 67 68 72 0
37 39 40 49 51 52 67 69 70 0
37 39 41 49 51 53 67 69 71 0
37 39 42 49 51 54 67 69 72 0
37 40 41 49 52 53 67 70 71 0
37 40 42 49 52 54 67 70 72 0
37 41 42 49 53 54 67 71 72 0
38 39 40 50 51 52 68 69 70 0
38 39 41 50 51 53 68 69 71 0
38 39 42 50 51 54 68 69 72 0
38 40 41 50 52 53 68 70 71 0
38 40 42 50 52 54 68 70 72 0
38 41 42 50 53 54 68 71 72 0
39 40 41 51 52 53 69 70 71 0
39 40 42 51 52 54 69 70 72 0
39 41 42 51 53 54 69 71 72 0
40 41 42 52 53 54 70 71 72 0
37 38 39 55 56 57 61 62 63 0
37 38 40 55 56 58 61 62 64 0
37 38 41 55 56 59 61 62 65 0
37 38 42 55 56 60 61 62 66 0
37 39 40 55 57 58 61 63 64 0
37 39 41 55 57 59 61 63 65 0
37 39 42 55 57 60 61 63 66 0
37 40 41 55 58 59 61 64 65 0
37 40 42 55 58 60 61 64 66 0
37 41 42 55 59 60 61 65 66 0
38 39 40 56 57 58 62 63 64 0
38 39 41 56 57 59 62 63 65 0
38 39 42 56 57 60 62 63 66 0
38 40 41 56 58 59 62 64 65 0
38 40 42 56 58 60 62 64 66 0
38 41 42 56 59 60 62 65 66 0
39 40 41 57 58 59 63 64 65 0
39 40 42 57 58 60 63 64 66 0
39 41 42 57 59 60 63 65 66 0
40 41 42 58 59 60 64 65 66 0
37 38 39 55 56 57 67 68 69 0
37 38 40 55 56 58 67 68 70 0
37 38 41 55 56 59 67 68 71 0
37 38 42 55 56 60 67 68 72 0
37 39 40 55 57 58 67 69 70 0
37 39 41 55 57 59 67 69 71 0
37 39 42 55 57 60 67 69 72 0
37 40 41 55 58 59 67 70 71 0
37 40 42 55 58 60 67 70 72 0
37 41 42 55 59 60 67 71 72 0
38 39 40 56 57 58 68 69 70 0
38 39 41 56 57 59 68 69 71 0
38 39 42 56 57 60 68 69 72 0
38 40 41 56 58 59 68 70 71 0
38 40 42 56 58 60 68 70 72 0
38 41 42 56 59 60 68 71 72 0
39 40 41 57 58 59 69 70 71 0
39 40 42 57 58 60 69 70 72 0
39 41 42 57 59 60 69 71 72 0
40 41 42 58 59 60 70 71 72 0
37 38 39 61 62 63 67 68 69 0
37 38 40 61 62 64 67 68 70 0
37 38 41 61 62 65 67 68 71 0
37 38 42 61 62 66 67 68 72 0
37 39 40 61 63 64 67 69 70 0
37 39 41 61 63 65 67 69 71 0
37 39 42 61 63 66 67 69 72 0
37 40 41 61 64 65 67 70 71 0
37 40 42 61 64 66 67 70 72 0
37 41 42 61 65 66 67 71 72 0
38 39 40 62 63 64 68 69 70 0
38 39 41 62 63 65 68 69 71 0
38 39 42 62 63 66 68 69 72 0
38 40 41 62 64 65 68 70 71 0
38 40 42 62 64 66 68 70 72 0
38 41 42 62 65 66 68 71 72 0
39 40 41 63 64 65 69 70 71 0
39 40 42 63 64 66 69 70 72 0
39 41 42 63 65 66 69 71 72 0
40 41 42 64 65 66 70 71 72 0
43 44 45 49 50 51 55 56 57 0
43 44 46 49 50 52 55 56 58 0
43 44 47 49 50 53 55 56 59 0
43 44 48 49 50 54 55 56 60 0
43 45 46 49 51 52 55 57 58 0
43 45 47 49 51 53 55 57 59 0
43 45 48 49 51 54 55 57 60 0
43 46 47 49 52 53 55 58 59 0
43 46 48 49 52 54 55 58 60 0
43 47 48 49 53 54 55 59 60 0
44 45 46 50 51 52 56 57 58 0
44 45 47 50 51 53 56 57 59 0
44 45 48 50 51 54 56 57 60 0
44 46 47 50 52 53 56 58 59 0
44 46 48 50 52 54 56 58 60 0
44 47 48 50 53 54 56 59 60 0
45 46 47 51 52 53 57 58 59 0
45 46 48 51 52 54 57 58 60 0
45 47 48 51 53 54 57 59 60 0
46 47 48 52 53 54 58 59 60 0
43 44 45 49 50 51 61 62 63 0
43 44 46 49 50 52 61 62 64 0
43 44 47 49 50 53 61 62 65 0
43 44 48 49 50 54 61 62 66 0
43 45 46 49 51 52 61 63 64 0
43 45 47 49 51 53 61 63 65 0
43 45 48 49 51 54 61 63 66 0
43 46 47 49 52 53 61 64 65 0
43 46 48 49 52 54 61 64 66 0
43 47 48 49 53 54 61 65 66 0
44 45 46 50 51 52 62 63 64 0
44 45 47 50 51 53 62 63 65 0
44 45 48 50 51 54 62 63 66 0
44 46 47 50 52 53 62 64 65 0
44 46 48 50 52 54 62 64 66 0
44 47 48 50 53 54 62 65 66 0
45 46 47 51 52 53 63 64 65 0
45 46 48 51 52 54 63 64 66 0
45 47 48 51 53 54 63 65 66 0
46 47 48 52 53 54 64 65 66 0
43 44 45 49 50 51 67 68 69 0
43 44 46 49 50 52 67 68 70 0
43 44 47 49 50 53 67 68 71 0
43 44 48 49 50 54 67 68 72 0
43 45 46 49 51 52 67 69 70 0
43 45 47 49 51 53 67 69 71 0
43 45 48 49 51 54 67 69 72 0
43 46 47 49 52 53 67 70 71 0
43 46 48 49 52 54 67 70 72 0
43 47 48 49 53 54 67 71 72 0
44 45 46 50 51 52 68 69 70 0
44 45 47 50 51 53 68 69 71 0
44 45 48 50 51 54 68 69 72 0
44 46 47 50 52 53 68 70 71 0
44 46 48 50 52 54 68 70 72 0
44 47 48 50 53 54 68 71 72 0
45 46 47 51 52 53 69 70 71 0
45 46 48 51 52 54 69 70 72 0
45 47 48 51 53 54 69 71 72 0
46 47 48 52 53 54 70 71 72 0
43 44 45 55 56 57 61 62 63 0
43 44 46 55 56 58 61 62 64 0
43 44 47 55 56 59 61 62 65 0
43 44 48 55 56 60 61 62 66 0
43 45 46 55 57 58 61 63 64 0
43 45 47 55 57 59 61 63 65 0
43 45 48 55 57 60 61 63 66 0
43 46 47 55 58 59 61 64 65 0
43 46 48 55 58 60 61 64 66 0
43 47 48 55 59 60 61 65 66 0
44 45 46 56 57 58 62 63 64 0
44 45 47 56 57 59 62 63 65 0
44 45 48 56 57 60 62 63 66 0
44 46 47 56 58 59 62 64 65 0
44 46 48 56 58 60 62 64 66 0
44 47 48 56 59 60 62 65 66 0
45 46 47 57 58 59 63 64 65 0
45 46 48 57 58 60 63 64 66 0
45 47 48 57 59 60 63 65 66 0
46 47 48 58 59 60 64 65 66 0
43 44 45 55 56 57 67 68 69 0
43 44 46 55 56 58 67 68 70 0
43 44 47 55 56 59 67 68 71 0
43 44 48 55 56 60 67 68 72 0
43 45 46 55 57 58 67 69 70 0
43 45 47 55 57 59 67 69 71 0
43 45 48 55 57 60 67 69 72 0
43 46 47 55 58 59 67 70 71 0
43 46 48 55 58 60 67 70 72 0
43 47 48 55 59 60 67 71 72 0
44 45 46 56 57 58 68 69 70 0
44 45 47 56 57 59 68 69 71 0
44 45 48 56 57 60 68 69 72 0
44 46 47 56 58 59 68 70 71 0
44 46 48 56 58 60 68 70 72 0
44 47 48 56 59 60 68 71 72 0
45 46 47 57 58 59 69 70 71 0
45 46 48 57 58 60 69 70 72 0
45 47 48 57 59 60 69 71 72 0
46 47 48 58 59 60 70 71 72 0
43 44 45 61 62 63 67 68 69 0
43 44 46 61 62 64 67 68 70 0
43 44 47 61 62 65 67 68 71 0
43 44 48 61 62 66 67 68 72 0
43 45 46 61 63 64 67 69 70 0
43 45 47 61 63 65 67 69 71 0
43 45 48 61 63 66 67 69 72 0
43 46 47 61 64 65 67 70 71 0
43 46 48 61 64 66 67 70 72 0
43 47 48 61 65 66 67 71 72 0
44 45 46 62 63 64 68 69 70 0
44 45 47 62 63 65 68 69 71 0
44 45 48 62 63 66 68 69 72 0
44 46 47 62 64 65 68 70 71 0
44 46 48 62 64 66 68 70 72 0
44 47 48 62 65 66 68 71 72 0
45 46 47 63 64 65 69 70 71 0
45 46 48 63 64 66 69 70 72 0
45 47 48 63 65 66 69 71 72 0
46 47 48 64 65 66 70 71 72 0
49 50 51 55 56 57 61 62 63 0
49 50 52 55 56 58 61 62 64 0
49 50 53 55 56 59 61 62 65 0
49 50 54 55 56 60 61 62 66 0
49 51 52 55 57 58 61 63 64 0
49 51 53 55 57 59 61 63 65 0
49 51 54 55 57 60 61 63 66 0
49 52 53 55 58 59 61 64 65 0
49 52 54 55 58 60 61 64 66 0
49 53 54 55 59 60 61 65 66 0
50 51 52 56 57 58 62 63 64 0
50 51 53 56 57 59 62 63 65 0
50 51 54 56 57 60 62 63 66 0
50 52 53 56 58 59 62 64 65 0
50 52 54 56 58 60 62 64 66 0
50 53 54 56 59 60 62 65 66 0
51 52 53 57 58 59 63 64 65 0
51 52 54 57 58 60 63 64 66 0
51 53 54 57 59 60 63 65 66 0
52 53 54 58 59 60 64 65 66 0
49 50 51 55 56 57 67 68 69 0
49 50 52 55 56 58 67 68 70 0
49 50 53 55 56 59 67 68 71 0
49 50 54 55 56 60 67 68 72 0
49 51 52 55 57 58 67 69 70 0
49 51 53 55 57 59 67 69 71 0
49 51 54 55 57 60 67 69 72 0
49 52 53 55 58 59 67 70 71 0
49 52 54 55 58 60 67 70 72 0
49 53 54 55 59 60 67 71 72 0
50 51 52 56 57 58 68 69 70 0
50 51 53 56 57 59 68 69 71 0
50 51 54 56 57 60 68 69 72 0
50 52 53 56 58 59 68 70 71 0
50 52 54 56 58 60 68 70 72 0
50 53 54 56 59 60 68 71 72 0
51 52 53 57 58 59 69 70 71 0
51 52 54 57 58 60 69 70 72 0
51 53 54 57 59 60 69 71 72 0
52 53 54 58 59 60 70 71 72 0
49 50 51 61 62 63 67 68 69 0
49 50 52 61 62 64 67 68 70 0
49 50 53 61 62 65 67 68 71 0
49 50 54 61 62 66 67 68 72 0
49 51 52 61 63 64 67 69 70 0
49 51 53 61 63 65 67 69 71 0
49 51 54 61 63 66 67 69 72 0
49 52 53 61 64 65 67 70 71 0
49 52 54 61 64 66 67 70 72 0
49 53 54 61 65 66 67 71 72 0
50 51 52 62 63 64 68 69 70 0
50 51 53 62 63 65 68 69 71 0
50 51 54 62 63 66 68 69 72 0
50 52 53 62 64 65 68 70 71 0
50 52 54 62 64 66 68 70 72 0
50 53 54 62 65 66 68 71 72 0
51 52 53 63 64 65 69 70 71 0
51 52 54 63 64 66 69 70 72 0
51 53 54 63 65 66 69 71 72 0
52 53 54 64 65 66 70 71 72 0
55 56 57 61 62 63 67 68 69 0
55 56 58 61 62 64 67 68 70 0
55 56 59 61 62 65 67 68 71 0
55 56 60 61 62 66 67 68 72 0
55 57 58 61 63 64 67 69 70 0
55 57 59 61 63 65 67 69 71 0
55 57 60 61 63 66 67 69 72 0
55 58 59 61 64 65 67 70 71 0
55 58 60 61 64 66 67 70 72 0
55 59 60 61 65 66 67 71 72 0
56 57 58 62 63 64 68 69 70 0
56 57 59 62 63 65 68 69 71 0
56 57 60 62 63 66 68 69 72 0
56 58 59 62 64 65 68 70 71 0
56 58 60 62 64 66 68 70 72 0
56 59 60 62 65 66 68 71 72 0
57 58 59 63 64 65 69 70 71 0
57 58 60 63 64 66 69 70 72 0
57 59 60 63 65 66 69 71 72 0
58 59 60 64 65 66 70 71 72 0
73 74 75 79 80 81 85 86 87 0
73 74 76 79 80 82 85 86 88 0
73 74 77 79 80 83 85 86 89 0
73 74 78 79 80 84 85 86 90 0
73 75 76 79 81 82 85 87 88 0
73 75 77 79 81 83 85 87 89 0
73 75 78 79 81 84 85 87 90 0
73 76 77 79 82 83 85 88 89 0
73 76 78 79 82 84 85 88 90 0
73 77 78 79 83 84 85 89 90 0
74 75 76 80 81 82 86 87 88 0
74 75 77 80 81 83 86 87 89 0
74 75 78 80 81 84 86 87 90 0
74 76 77 80 82 83 86 88 89 0
74 76 78 80 82 84 86 88 90 0
74 77 78 80 83 84 86 89 90 0
75 76 77 81 82 83 87 88 89 0
75 76 78 81 82 84 87 88 90 0
75 77 78 81 83 84 87 89 90 0
76 77 78 82 83 84 88 89 90 0
73 74 75 79 80 81 91 92 93 0
73 74 76 79 80 82 91 92 94 0
73 74 77 79 80 83 91 92 95 0
73 74 78 79 80 84 91 92 96 0
73 75 76 79 81 82 91 93 94 0
73 75 77 79 81 83 91 93 95 0
73 75 78 79 81 84 91 93 96 0
73 76 77 79 82 83 91 94 95 0
73 76 78 79 82 84 91 94 96 0
73 77 78 79 83 84 91 95 96 0
74 75 76 80 81 82 92 93 94 0
74 75 77 80 81 83 92 93 95 0
74 75 78 80 81 84 92 93 96 0
74 76 77 80 82 83 92 94 95 0
74 76 78 80 82 84 92 94 96 0
74 77 78 80 83 84 92 95 96 0
75 76 77 81 82 83 93 94 95 0
75 76 78 81 82 84 93 94 96 0
75 77 78 81 83 84 93 95 96 0
76 77 78 82 83 84 94 95 96 0
73 74 75 79 80 81 97 98 99 0
73 74 76 79 80 82 97 98 100 0
73 74 77 79 80 83 97 98 101 0
73 74 78 79 80 84 97 98 102 0
73 75 76 79 81 82 97 99 100 0
73 75 77 79 81 83 97 99 101 0
73 75 78 79 81 84 97 99 102 0
73 76 77 79 82 83 97 100 101 0
73 76 78 79 82 84 97 100 102 0
73 77 78 79 83 84 97 101 102 0
74 75 76 80 81 82 98 99 100 0
74 75 77 80 81 83 98 99 101 0
74 75 78 80 81 84 98 99 102 0
74 76 77 80 82 83 98 100 101 0
74 76 78 80 82 84 98 100 102 0
74 77 78 80 83 84 98 101 102 0
75 76 77 81 82 83 99 100 101 0
75 76 78 81 82 84 99 100 102 0
75 77 78 81 83 84 99 101 102 0
76 77 78 82 83 84 100 101 102 0
73 74 75 79 80 81 103 104 105 0
73 74 76 79 80 82 103 104 106 0
73 74 77 79 80 83 103 104 107 0
73 74 78 79 80 84 103 104 108 0
73 75 76 79 81 82 103 105 106 0
73 75 77 79 81 83 103 105 107 0
73 75 78 79 81 84 103 105 108 0
73 76 77 79 82 83 103 106 107 0
73 76 78 79 82 84 103 106 108 0
73 77 78 79 83 84 103 107 108 0
74 75 76 80 81 82 104 105 106 0
74 75 77 80 81 83 104 105 107 0
74 75 78 80 81 84 104 105 108 0
74 76 77 80 82 83 104 106 107 0
74 76 78 80 82 84 104 106 108 0
74 77 78 80 83 84 104 107 108 0
75 76 77 81 82 83 105 106 107 0
75 76 78 81 82 84 105 106 108 0
75 77 78 81 83 84 105 107 108 0
76 77 78 82 83 84 106 107 108 0
73 74 75 85 86 87 91 92 93 0
73 74 76 85 86 88 91 92 94 0
73 74 77 85 86 89 91 92 95 0
73 74 78 85 86 90 91 92 96 0
73 75 76 85 87 88 91 93 94 0
73 75 77 85 87 89 91 93 95 0
73 75 78 85 87 90 91 93 96 0
73 76 77 85 88 89 91 94 95 0
73 76 78 85 88 90 91 94 96 0
73 77 78 85 89 90 91 95 96 0
74 75 76 86 87 88 92 93 94 0
74 75 77 86 87 89 92 93 95 0
74 75 78 86 87 90 92 93 96 0
74 76 77 86 88 89 92 94 95 0
74 76 78 86 88 90 92 94 96 0
74 77 78 86 89 90 92 95 96 0
75 76 77 87 88 89 93 94 95 0
75 76 78 87 88 90 93 94 96 0
75 77 78 87 89 90 93 95 96 0
76 77 78 88 89 90 94 95 96 0
73 74 75 85 86 87 97 98 99 0
73 74 76 85 86 88 97 98 100 0
73 74 77 85 86 89 97 98 101 0
73 74 78 85 86 90 97 98 102 0
73 75 76 85 87 88 97 99 100 0
73 75 77 85 87 89 97 99 101 0
73 75 78 85 87 90 97 99 102 0
73 76 77 85 88 89 97 100 101 0
73 76 78 85 88 90 97 100 102 0
73 77 78 85 89 90 97 101 102 0
74 75 76 86 87 88 98 99 100 0
74 75 77 86 87 89 98 99 101 0
74 75 78 86 87 90 98 99 102 0
74 76 77 86 88 89 98 100 101 0
74 76 78 86 88 90 98 100 102 0
74 77 78 86 89 90 98 101 102 0
75 76 77 87 88 89 99 100 101 0
75 76 78 87 88 90 99 100 102 0
75 77 78 87 89 90 99 101 102 0
76 77 78 88 89 90 100 101 102 0
73 74 75 85 86 87 103 104 105 0
73 74 76 85 86 88 103 104 106 0
73 74 77 85 86 89 103 104 107 0
73 74 78 85 86 90 103 104 108 0
73 75 76 85 87 88 103 105 106 0
73 75 77 85 87 89 103 105 107 0
73 75 78 85 87 90 103 105 108 0
73 76 77 85 88 89 103 106 107 0
73 76 78 85 88 90 103 106 108 0
73 77 78 85 89 90 103 107 108 0
74 75 76 86 87 88 104 105 106 0
74 75 77 86 87 89 104 105 107 0
74 75 78 86 87 90 104 105 108 0
74 76 77 86 88 89 104 106 107 0
74 76 78 86 88 90 104 106 108 0
74 77 78 86 89 90 104 107 108 0
75 76 77 87 88 89 105 106 107 0
75 76 78 87 88 90 105 106 108 0
75 77 78 87 89 90 105 107 108 0
76 77 78 88 89 90 106 107 108 0
73 74 75 91 92 93 97 98 99 0
73 74 76 91 92 94 97 98 100 0
73 74 77 91 92 95 97 98 101 0
73 74 78 91 92 96 97 98 102 0
73 75 76 91 93 94 97 99 100 0
73 75 77 91 93 95 97 99 101 0
73 75 78 91 93 96 97 99 102 0
73 76 77 91 94 95 97 100 101 0
73 76 78 91 94 96 97 100 102 0
73 77 78 91 95 96 97 101 102 0
74 75 76 92 93 94 98 99 100 0
74 75 77 92 93 95 98 99 101 0
74 75 78 92 93 96 98 99 102 0
74 76 77 92 94 95 98 100 101 0
74 76 78 92 94 96 98 100 102 0
74 77 78 92 95 96 98 101 102 0
75 76 77 93 94 95 99 100 101 0
75 76 78 93 94 96 99 100 102 0
75 77 78 93 95 96 99 101 102 0
76 77 78 94 95 96 100 101 102 0
73 74 75 91 92 93 103 104 105 0
73 74 76 91 92 94 103 104 106 0
73 74 77 91 92 95 103 104 107 0
73 74 78 91 92 96 103 104 108 0
73 75 76 91 93 94 103 105 106 0
73 75 77 91 93 95 103 105 107 0
73 75 78 91 93 96 103 105 108 0
73 76 77 91 94 95 103 106 107 0
73 76 78 91 94 96 103 106 108 0
73 77 78 91 95 96 103 107 108 0
74 75 76 92 93 94 104 105 106 0
74 75 77 92 93 95 104 105 107 0
74 75 78 92 93 96 104 105 108 0
74 76 77 92 94 95 104 106 107 0
74 76 78 92 94 96 104 106 108 0
74 77 78 92 95 96 104 107 108 0
75 76 77 93 94 95 105 106 107 0
75 76 78 93 94 96 105 106 108 0
75 77 78 93 95 96 105 107 108 0
76 77 78 94 95 96 106 107 108 0
73 74 75 97 98 99 103 104 105 0
73 74 76 97 98 100 103 104 106 0
73 74 77 97 98 101 103 104 107 0
73 74 78 97 98 102 103 104 108 0
73 75 76 97 99 100 103 105 106 0
73 75 77 97 99 101 103 105 107 0
73 75 78 97 99 102 103 105 108 0
73 76 77 97 100 101 103 106 107 0
73 76 78 97 100 102 103 106 108 0
73 77 78 97 101 102 103 107 108 0
74 75 76 98 99 100 104 105 106 0
74 75 77 98 99 101 104 105 107 0
74 75 78 98 99 102 104 105 108 0
74 76 77 98 100 101 104 106 107 0
74 76 78 98 100 102 104 106 108 0
74 77 78 98 101 102 104 107 108 0
75 76 77 99 100 101 105 106 107 0
75 76 78 99 100 102 105 106 108 0
75 77 78 99 101 102 105 107 108 0
76 77 78 100 101 102 106 107 108 0
79 80 81 85 86 87 91 92 93 0
79 80 82 85 86 88 91 92 94 0
79 80 83 85 86 89 91 92 95 0
79 80 84 85 86 90 91 92 96 0
79 81 82 85 87 88 91 93 94 0
79 81 83 85 87 89 91 93 95 0
79 81 84 85 87 90 91 93 96 0
79 82 83 85 88 89 91 94 95 0
79 82 84 85 88 90 91 94 96 0
79 83 84 85 89 90 91 95 96 0
80 81 82 86 87 88 92 93 94 0
80 81 83 86 87 89 92 93 95 0
80 81 84 86 87 90 92 93 96 0
80 82 83 86 88 89 92 94 95 0
80 82 84 86 88 90 92 94 96 0
80 83 84 86 89 90 92 95 96 0
81 82 83 87 88 89 93 94 95 0
81 82 84 87 88 90 93 94 96 0
81 83 84 87 89 90 93 95 96 0
82 83 84 88 89 90 94 95 96 0
79 80 81 85 86 87 97 98 99 0
79 80 82 85 86 88 97 98 100 0
79 80 83 85 86 89 97 98 101 0
79 80 84 85 86 90 97 98 102 0
79 81 82 85 87 88 97 99 100 0
79 81 83 85 87 89 97 99 101 0
79 81 84 85 87 90 97 99 102 0
79 82 83 85 88 89 97 100 101 0
79 82 84 85 88 90 97 100 102 0
79 83 84 85 89 90 97 101 102 0
80 81 82 86 87 88 98 99 100 0
80 81 83 86 87 89 98 99 101 0
80 81 84 86 87 90 98 99 102 0
80 82 83 86 88 89 98 100 101 0
80 82 84 86 88 90 98 100 102 0
80 83 84 86 89 90 98 101 102 0
81 82 83 87 88 89 99 100 101 0
81 82 84 87 88 90 99 100 102 0
81 83 84 87 89 90 99 101 102 0
82 83 84 88 89 90 100 101 102 0
79 80 81 85 86 87 103 104 105 0
79 80 82 85 86 88 103 104 106 0
79 80 83 85 86 89 103 104 107 0
79 80 84 85 86 90 103 104 108 0
79 81 82 85 87 88 103 105 106 0
79 81 83 85 87 89 103 105 107 0
79 81 84 85 87 90 103 105 108 0
79 82 83 85 88 89 103 106 107 0
79 82 84 85 88 90 103 106 108 0
79 83 84 85 89 90 103 107 108 0
80 81 82 86 87 88 104 105 106 0
80 81 83 86 87 89 104 105 107 0
80 81 84 86 87 90 104 105 108 0
80 82 83 86 88 89 104 106 107 0
80 82 84 86 88 90 104 106 108 0
80 83 84 86 89 90 104 107 108 0
81 82 83 87 88 89 105 106 107 0
81 82 84 87 88 90 105 106 108 0
81 83 84 87 89 90 105 107 108 0
82 83 84 88 89 90 106 107 108 0
79 80 81 91 92 93 97 98 99 0
79 80 82 91 92 94 97 98 100 0
79 80 83 91 92 95 97 98 101 0
79 80 84 91 92 96 97 98 102 0
79 81 82 91 93 94 97 99 100 0
79 81 83 91 93 95 97 99 101 0
79 81 84 91 93 96 97 99 102 0
79 82 83 91 94 95 97 100 101 0
79 82 84 91 94 96 97 100 102 0
79 83 84 91 95 96 97 101 102 0
80 81 82 92 93 94 98 99 100 0
80 81 83 92 93 95 98 99 101 0
80 81 84 92 93 96 98 99 102 0
80 82 83 92 94 95 98 100 101 0
80 82 84 92 94 96 98 100 102 0
80 83 84 92 95 96 98 101 102 0
81 82 83 93 94 95 99 100 101 0
81 82 84 93 94 96 99 100 102 0
81 83 84 93 95 96 99 101 102 0
82 83 84 94 95 96 100 101 102 0
79 80 81 91 92 93 103 104 105 0
79 80 82 91 92 94 103 104 106 0
79 80 83 91 92 95 103 104 107 0
79 80 84 91 92 96 103 104 108 0
79 81 82 91 93 94 103 105 106 0
79 81 83 91 93 95 103 105 107 0
79 81 84 91 93 96 103 105 108 0
79 82 83 91 94 95 103 106 107 0
79 82 84 91 94 96 103 106 108 0
79 83 84 91 95 96 103 107 108 0
80 81 82 92 93 94 104 105 106 0
80 81 83 92 93 95 104 105 107 0
80 81 84 92 93 96 104 105 108 0
80 82 83 92 94 95 104 106 107 0
80 82 84 92 94 96 104 106 108 0
80 83 84 92 95 96 104 107 108 0
81 82 83 93 94 95 105 106 107 0
81 82 84 93 94 96 105 106 108 0
81 83 84 93 95 96 105 107 108 0
82 83 84 94 95 96 106 107 108 0
79 80 81 97 98 99 103 104 105 0
79 80 82 97 98 100 103 104 106 0
79 80 83 97 98 101 103 104 107 0
79 80 84 97 98 102 103 104 108 0
79 81 82 97 99 100 103 105 106 0
79 81 83 97 99 101 103 105 107 0
79 81 84 97 99 102 103 105 108 0
79 82 83 97 100 101 103 106 107 0
79 82 84 97 100 102 103 106 108 0
79 83 84 97 101 102 103 107 108 0
80 81 82 98 99 100 104 105 106 0
80 81 83 98 99 101 104 105 107 0
80 81 84 98 99 102 104 105 108 0
80 82 83 98 100 101 104 106 107 0
80 82 84 98 100 102 104 106 108 0
80 83 84 98 101 102 104 107 108 0
81 82 83 99 100 101 105 106 107 0
81 82 84 99 100 102 105 106 108 0
81 83 84 99 101 102 105 107 108 0
82 83 84 100 101 102 106 107 108 0
85 86 87 91 92 93 97 98 99 0
85 86 88 91 92 94 97 98 100 0
85 86 89 91 92 95 97 98 101 0
85 86 90 91 92 96 97 98 102 0
85 87 88 91 93 94 97 99 100 0
85 87 89 91 93 95 97 99 101 0
85 87 90 91 93 96 97 99 102 0
85 88 89 91 94 95 97 100 101 0
85 88 90 91 94 96 97 100 102 0
85 89 90 91 95 96 97 101 102 0
86 87 88 92 93 94 98 99 100 0
86 87 89 92 93 95 98 99 101 0
86 87 90 92 93 96 98 99 102 0
86 88 89 92 94 95 98 100 101 0
86 88 90 92 94 96 98 100 102 0
86 89 90 92 95 96 98 101 102 0
87 88 89 93 94 95 99 100 101 0
87 88 90 93 94 96 99 100 102 0
87 89 90 93 95 96 99 101 102 0
88 89 90 94 95 96 100 101 102 0
85 86 87 91 92 93 103 104 105 0
85 86 88 91 92 94 103 104 106 0
85 86 89 91 92 95 103 104 107 0
85 86 90 91 92 96 103 104 108 0
85 87 88 91 93 94 103 105 106 0
85 87 89 91 93 95 103 105 107 0
85 87 90 91 93 96 103 105 108 0
85 88 89 91 94 95 103 106 107 0
85 88 90 91 94 96 103 106 108 0
85 89 90 91 95 96 103 107 108 0
86 87 88 92 93 94 104 105 106 0
86 87 89 92 93 95 104 105 107 0
86 87 90 92 93 96 104 105 108 0
86 88 89 92 94 95 104 106 107 0
86 88 90 92 94 96 104 106 108 0
86 89 90 92 95 96 104 107 108 0
87 88 89 93 94 95 105 106 107 0
87 88 90 93 94 96 105 106 108 0
87 89 90 93 95 96 105 107 108 0
88 89 90 94 95 96 106 107 108 0
85 86 87 97 98 99 103 104 105 0
85 86 88 97 98 100 103 104 106 0
85 86 89 97 98 101 103 104 107 0
85 86 90 97 98 102 103 104 108 0
85 87 88 97 99 100 103 105 106 0
85 87 89 97 99 101 103 105 107 0
85 87 90 97 99 102 103 105 108 0
85 88 89 97 100 101 103 106 107 0
85 88 90 97 100 102 103 106 108 0
85 89 90 97 101 102 103 107 108 0
86 87 88 98 99 100 104 105 106 0
86 87 89 98 99 101 104 105 107 0
86 87 90 98 99 102 104 105 108 0
86 88 89 98 100 101 104 106 107 0
86 88 90 98 100 102 104 106 108 0
86 89 90 98 101 102 104 107 108 0
87 88 89 99 100 101 105 106 107 0
87 88 90 99 100 102 105 106 108 0
87 89 90 99 101 102 105 107 108 0
88 89 90 100 101 102 106 107 108 0
91 92 93 97 98 99 103 104 105 0
91 92 94 97 98 100 103 104 106 0
91 92 95 97 98 101 103 104 107 0
91 92 96 97 98 102 103 104 108 0
91 93 94 97 99 100 103 105 106 0
91 93 95 97 99 101 103 105 107 0
91 93 96 97 99 102 103 105 108 0
91 94 95 97 100 101 103 106 107 0
91 94 96 97 100 102 103 106 108 0
91 95 96 97 101 102 103 107 108 0
92 93 94 98 99 100 104 105 106 0
92 93 95 98 99 101 104 105 107 0
92 93 96 98 99 102 104 105 108 0
92 94 95 98 100 101 104 106 107 0
92 94 96 98 100 102 104 106 108 0
92 95 96 98 101 102 104 107 108 0
93 94 95 99 100 101 105 106 107 0
93 94 96 99 100 102 105 106 108 0
93 95 96 99 101 102 105 107 108 0
94 95 96 100 101 102 106 107 108 0
-1 -37 -73 0
-1 -38 -74 0
-1 -39 -75 0
-1 -40 -76 0
-1 -41 -77 0
-1 -42 -78 0
-2 -37 -79 0
-2 -38 -80 0
-2 -39 -81 0
-2 -40 -82 0
-2 -41 -83 0
-2 -42 -84 0
-3 -37 -85 0
-3 -38 -86 0
-3 -39 -87 0
-3 -40 -88 0
-3 -41 -89 0
-3 -42 -90 0
-4 -37 -91 0
-4 -38 -92 0
-4 -39 -93 0
-4 -40 -94 0
-4 -41 -95 0
-4 -42 -96 0
-5 -37 -97 0
-5 -38 -98 0
-5 -39 -99 0
-5 -40 -100 0
-5 -41 -101 0
-5 -42 -102 0
-6 -37 -103 0
-6 -38 -104 0
-6 -39 -105 0
-6 -40 -106 0
-6 -41 -107 0
-6 -42 -108 0
-7 -43 -73 0
-7 -44 -74 0
-7 -45 -75 0
-7 -46 -76 0
-7 -47 -77 0
-7 -48 -78 0
-8 -43 -79 0
-8 -44 -80 0
-8 -45 -81 0
-8 -46 -82 0
-8 -47 -83 0
-8 -48 -84 0
-9 -43 -85 0
-9 -44 -86 0
-9 -45 -87 0
-9 -46 -88 0
-9 -47 -89 0
-9 -48 -90 0
-10 -43 -91 0
-10 -44 -92 0
-10 -45 -93 0
-10 -46 -94 0
-10 -47 -95 0
-10 -48 -96 0
-11 -43 -97 0
-11 -44 -98 0
-11 -45 -99 0
-11 -46 -100 0
-11 -47 -101 0
-11 -48 -102 0
-12 -43 -103 0
-12 -44 -104 0
-12 -45 -105 0
-12 -46 -106 0
-12 -47 -107 0
-12 -48 -108 0
-13 -49 -73 0
-13 -50 -74 0
-13 -51 -75 0
-13 -52 -76 0
-13 -53 -77 0
-13 -54 -78 0
-14 -49 -79 0
-14 -50 -80 0
-14 -51 -81 0
-14 -52 -82 0
-14 -53 -83 0
-14 -54 -84 0
-15 -49 -85 0
-15 -50 -86 0
-15 -51 -87 0
-15 -52 -88 0
-15 -53 -89 0
-15 -54 -90 0
-16 -49 -91 0
-16 -50 -92 0
-16 -51 -93 0
-16 -52 -94 0
-16 -53 -95 0
-16 -54 -96 0
-17 -49 -97 0
-17 -50 -98 0
-17 -51 -99 0
-17 -52 -100 0
-17 -53 -101 0
-17 -54 -102 0
-18 -49 -103 0
-18 -50 -104 0
-18 -51 -105 0
-18 -52 -106 0
-18 -53 -107 0
-18 -54 -108 0
-19 -55 -73 0
-19 -56 -74 0
-19 -57 -75 0
-19 -58 -76 0
-19 -59 -77 0
-19 -60 -78 0
-20 -55 -79 0
-20 -56 -80 0
-20 -57 -81 0
-20 -58 -82 0
-20 -59 -83 0
-20 -60 -84 0
-21 -55 -85 0
-21 -56 -86 0
-21 -57 -87 0
-21 -58 -88 0
-21 -59 -89 0
-21 -60 -90 0
-22 -55 -91 0
-22 -56 -92 0
-22 -57 -93 0
-22 -58 -94 0
-22 -59 -95 0
-22 -60 -96 0
-23 -55 -97 0
-23 -56 -98 0
-23 -57 -99 0
-23 -58 -100 0
-23 -59 -101 0
-23 -60 -102 0
-24 -55 -103 0
-24 -56 -104 0
-24 -57 -105 0
-24 -58 -106 0
-24 -59 -107 0
-24 -60 -108 0
-25 -61 -73 0
-25 -62 -74 0
-25 -63 -75 0
-25 -64 -76 0
-25 -65 -77 0
-25 -66 -78 0
-26 -61 -79 0
-26 -62 -80 0
-26 -63 -81 0
-26 -64 -82 0
-26 -65 -83 0
-26 -66 -84 0
-27 -61 -85 0
-27 -62 -86 0
-27 -63 -87 0
-27 -64 -88 0
-27 -65 -89 0
-27 -66 -90 0
-28 -61 -91 0
-28 -62 -92 0
-28 -63 -93 0
-28 -64 -94 0
-28 -65 -95 0
-28 -66 -96 0
-29 -61 -97 0
-29 -62 -98 0
-29 -63 -99 0
-29 -64 -100 0
-29 -65 -101 0
-29 -66 -102 0
-30 -61 -103 0
-30 -62 -104 0
-30 -63 -105 0
-30 -64 -106 0
-30 -65 -107 0
-30 -66 -108 0
-31 -67 -73 0
-31 -68 -74 0
-31 -69 -75 0
-31 -70 -76 0
-31 -71 -77 0
-31 -72 -78 0
-32 -67 -79 0
-32 -68 -80 0
-32 -69 -81 0
-32 -70 -82 0
-32 -71 -83 0
-32 -72 -84 0
-33 -67 -85 0
-33 -68 -86 0
-33 -69 -87 0
-33 -70 -88 0
-33 -71 -89 0
-33 -72 -90 0
-34 -67 -91 0
-34 -68 -92 0
-34 -69 -93 0
-34 -70 -94 0
-34 -71 -95 0
-34 -72 -96 0
-35 -67 -97 0
-35 -68 -98 0
-35 -69 -99 0
-35 -70 -100 0
-35 -71 -101 0
-35 -72 -102 0
-36 -67 -103 0
-36 -68 -104 0
-36 -69 -105 0
-36 -70 -106 0
-36 -71 -107 0
-36 -72 -108 0
